; benchmark generated from python API
(set-info :status unknown)
(declare-fun cell_1_7 () Int)
(declare-fun cell_1_8 () Int)
(declare-fun cell_2_2 () Int)
(declare-fun cell_2_3 () Int)
(declare-fun cell_3_5 () Int)
(declare-fun cell_3_6 () Int)
(declare-fun cell_4_1 () Int)
(declare-fun cell_4_2 () Int)
(declare-fun cell_5_7 () Int)
(declare-fun cell_5_9 () Int)
(declare-fun cell_6_4 () Int)
(declare-fun cell_6_6 () Int)
(declare-fun cell_7_1 () Int)
(declare-fun cell_8_4 () Int)
(declare-fun cell_9_9 () Int)
(declare-fun cell_1_1 () Int)
(declare-fun cell_2_1 () Int)
(declare-fun cell_3_1 () Int)
(declare-fun cell_5_1 () Int)
(declare-fun cell_6_1 () Int)
(declare-fun cell_8_1 () Int)
(declare-fun cell_9_1 () Int)
(declare-fun cell_1_2 () Int)
(declare-fun cell_3_2 () Int)
(declare-fun cell_5_2 () Int)
(declare-fun cell_6_2 () Int)
(declare-fun cell_7_2 () Int)
(declare-fun cell_8_2 () Int)
(declare-fun cell_9_2 () Int)
(declare-fun cell_1_3 () Int)
(declare-fun cell_3_3 () Int)
(declare-fun cell_4_3 () Int)
(declare-fun cell_5_3 () Int)
(declare-fun cell_6_3 () Int)
(declare-fun cell_7_3 () Int)
(declare-fun cell_8_3 () Int)
(declare-fun cell_9_3 () Int)
(declare-fun cell_1_4 () Int)
(declare-fun cell_2_4 () Int)
(declare-fun cell_3_4 () Int)
(declare-fun cell_4_4 () Int)
(declare-fun cell_5_4 () Int)
(declare-fun cell_7_4 () Int)
(declare-fun cell_9_4 () Int)
(declare-fun cell_1_5 () Int)
(declare-fun cell_2_5 () Int)
(declare-fun cell_4_5 () Int)
(declare-fun cell_5_5 () Int)
(declare-fun cell_6_5 () Int)
(declare-fun cell_7_5 () Int)
(declare-fun cell_8_5 () Int)
(declare-fun cell_9_5 () Int)
(declare-fun cell_1_6 () Int)
(declare-fun cell_2_6 () Int)
(declare-fun cell_4_6 () Int)
(declare-fun cell_5_6 () Int)
(declare-fun cell_7_6 () Int)
(declare-fun cell_8_6 () Int)
(declare-fun cell_9_6 () Int)
(declare-fun cell_2_7 () Int)
(declare-fun cell_3_7 () Int)
(declare-fun cell_4_7 () Int)
(declare-fun cell_6_7 () Int)
(declare-fun cell_7_7 () Int)
(declare-fun cell_8_7 () Int)
(declare-fun cell_9_7 () Int)
(declare-fun cell_2_8 () Int)
(declare-fun cell_3_8 () Int)
(declare-fun cell_4_8 () Int)
(declare-fun cell_5_8 () Int)
(declare-fun cell_6_8 () Int)
(declare-fun cell_7_8 () Int)
(declare-fun cell_8_8 () Int)
(declare-fun cell_9_8 () Int)
(declare-fun cell_1_9 () Int)
(declare-fun cell_2_9 () Int)
(declare-fun cell_3_9 () Int)
(declare-fun cell_4_9 () Int)
(declare-fun cell_6_9 () Int)
(declare-fun cell_7_9 () Int)
(declare-fun cell_8_9 () Int)
(assert
 (= cell_1_7 2))
(assert
 (= cell_1_8 1))
(assert
 (= cell_2_2 2))
(assert
 (= cell_2_3 1))
(assert
 (= cell_3_5 1))
(assert
 (= cell_3_6 2))
(assert
 (= cell_4_1 2))
(assert
 (= cell_4_2 1))
(assert
 (= cell_5_7 1))
(assert
 (= cell_5_9 2))
(assert
 (= cell_6_4 2))
(assert
 (= cell_6_6 1))
(assert
 (= cell_7_1 1))
(assert
 (= cell_8_4 1))
(assert
 (= cell_9_9 1))
(assert
 (let (($x313 (= cell_1_1 9)))
 (let (($x1000 (= cell_1_1 8)))
 (let (($x2960 (= cell_1_1 7)))
 (let (($x389 (= cell_1_1 6)))
 (let (($x958 (= cell_1_1 5)))
 (let (($x3946 (= cell_1_1 4)))
 (let (($x2056 (= cell_1_1 3)))
 (let (($x2391 (= cell_1_1 2)))
 (let (($x2304 (= cell_1_1 1)))
 (or $x2304 $x2391 $x2056 $x3946 $x958 $x389 $x2960 $x1000 $x313)))))))))))
(assert
 (let (($x816 (= cell_2_1 9)))
 (let (($x3858 (= cell_2_1 8)))
 (let (($x4131 (= cell_2_1 7)))
 (let (($x1601 (= cell_2_1 6)))
 (let (($x520 (= cell_2_1 5)))
 (let (($x187 (= cell_2_1 4)))
 (let (($x1821 (= cell_2_1 3)))
 (let (($x2528 (= cell_2_1 2)))
 (let (($x2398 (= cell_2_1 1)))
 (or $x2398 $x2528 $x1821 $x187 $x520 $x1601 $x4131 $x3858 $x816)))))))))))
(assert
 (let (($x2575 (= cell_3_1 9)))
 (let (($x112 (= cell_3_1 8)))
 (let (($x881 (= cell_3_1 7)))
 (let (($x2283 (= cell_3_1 6)))
 (let (($x2243 (= cell_3_1 5)))
 (let (($x1188 (= cell_3_1 4)))
 (let (($x4156 (= cell_3_1 3)))
 (let (($x290 (= cell_3_1 2)))
 (let (($x1414 (= cell_3_1 1)))
 (or $x1414 $x290 $x4156 $x1188 $x2243 $x2283 $x881 $x112 $x2575)))))))))))
(assert
 (let (($x3590 (= cell_4_1 2)))
 (or (= cell_4_1 1) $x3590 (= cell_4_1 3) (= cell_4_1 4) (= cell_4_1 5) (= cell_4_1 6) (= cell_4_1 7) (= cell_4_1 8) (= cell_4_1 9))))
(assert
 (let (($x1913 (= cell_5_1 9)))
 (let (($x396 (= cell_5_1 8)))
 (let (($x2063 (= cell_5_1 7)))
 (let (($x3542 (= cell_5_1 6)))
 (let (($x4054 (= cell_5_1 5)))
 (let (($x2716 (= cell_5_1 4)))
 (let (($x837 (= cell_5_1 3)))
 (let (($x2146 (= cell_5_1 2)))
 (let (($x2514 (= cell_5_1 1)))
 (or $x2514 $x2146 $x837 $x2716 $x4054 $x3542 $x2063 $x396 $x1913)))))))))))
(assert
 (let (($x1589 (= cell_6_1 9)))
 (let (($x2340 (= cell_6_1 8)))
 (let (($x1164 (= cell_6_1 7)))
 (let (($x2157 (= cell_6_1 6)))
 (let (($x1793 (= cell_6_1 5)))
 (let (($x285 (= cell_6_1 4)))
 (let (($x2703 (= cell_6_1 3)))
 (let (($x2190 (= cell_6_1 2)))
 (let (($x2814 (= cell_6_1 1)))
 (or $x2814 $x2190 $x2703 $x285 $x1793 $x2157 $x1164 $x2340 $x1589)))))))))))
(assert
 (let (($x6798 (= cell_7_1 1)))
 (or $x6798 (= cell_7_1 2) (= cell_7_1 3) (= cell_7_1 4) (= cell_7_1 5) (= cell_7_1 6) (= cell_7_1 7) (= cell_7_1 8) (= cell_7_1 9))))
(assert
 (let (($x505 (= cell_8_1 9)))
 (let (($x3981 (= cell_8_1 8)))
 (let (($x2013 (= cell_8_1 7)))
 (let (($x2632 (= cell_8_1 6)))
 (let (($x50 (= cell_8_1 5)))
 (let (($x1048 (= cell_8_1 4)))
 (let (($x1184 (= cell_8_1 3)))
 (let (($x2106 (= cell_8_1 2)))
 (let (($x1619 (= cell_8_1 1)))
 (or $x1619 $x2106 $x1184 $x1048 $x50 $x2632 $x2013 $x3981 $x505)))))))))))
(assert
 (let (($x2861 (= cell_9_1 9)))
 (let (($x183 (= cell_9_1 8)))
 (let (($x770 (= cell_9_1 7)))
 (let (($x3289 (= cell_9_1 6)))
 (let (($x3087 (= cell_9_1 5)))
 (let (($x3919 (= cell_9_1 4)))
 (let (($x619 (= cell_9_1 3)))
 (let (($x2412 (= cell_9_1 2)))
 (let (($x2641 (= cell_9_1 1)))
 (or $x2641 $x2412 $x619 $x3919 $x3087 $x3289 $x770 $x183 $x2861)))))))))))
(assert
 (let (($x225 (= cell_1_2 9)))
 (let (($x2162 (= cell_1_2 8)))
 (let (($x2342 (= cell_1_2 7)))
 (let (($x1292 (= cell_1_2 6)))
 (let (($x1830 (= cell_1_2 5)))
 (let (($x2271 (= cell_1_2 4)))
 (let (($x1584 (= cell_1_2 3)))
 (let (($x494 (= cell_1_2 2)))
 (let (($x311 (= cell_1_2 1)))
 (or $x311 $x494 $x1584 $x2271 $x1830 $x1292 $x2342 $x2162 $x225)))))))))))
(assert
 (let (($x44 (= cell_2_2 2)))
 (or (= cell_2_2 1) $x44 (= cell_2_2 3) (= cell_2_2 4) (= cell_2_2 5) (= cell_2_2 6) (= cell_2_2 7) (= cell_2_2 8) (= cell_2_2 9))))
(assert
 (let (($x113 (= cell_3_2 9)))
 (let (($x3547 (= cell_3_2 8)))
 (let (($x356 (= cell_3_2 7)))
 (let (($x2538 (= cell_3_2 6)))
 (let (($x3225 (= cell_3_2 5)))
 (let (($x4174 (= cell_3_2 4)))
 (let (($x2317 (= cell_3_2 3)))
 (let (($x3709 (= cell_3_2 2)))
 (let (($x89 (= cell_3_2 1)))
 (or $x89 $x3709 $x2317 $x4174 $x3225 $x2538 $x356 $x3547 $x113)))))))))))
(assert
 (let (($x911 (= cell_4_2 1)))
 (or $x911 (= cell_4_2 2) (= cell_4_2 3) (= cell_4_2 4) (= cell_4_2 5) (= cell_4_2 6) (= cell_4_2 7) (= cell_4_2 8) (= cell_4_2 9))))
(assert
 (let (($x7494 (= cell_5_2 9)))
 (let (($x1171 (= cell_5_2 8)))
 (let (($x2384 (= cell_5_2 7)))
 (let (($x2567 (= cell_5_2 6)))
 (let (($x524 (= cell_5_2 5)))
 (let (($x6820 (= cell_5_2 4)))
 (let (($x1295 (= cell_5_2 3)))
 (let (($x6981 (= cell_5_2 2)))
 (let (($x2570 (= cell_5_2 1)))
 (or $x2570 $x6981 $x1295 $x6820 $x524 $x2567 $x2384 $x1171 $x7494)))))))))))
(assert
 (let (($x1845 (= cell_6_2 9)))
 (let (($x3817 (= cell_6_2 8)))
 (let (($x4194 (= cell_6_2 7)))
 (let (($x406 (= cell_6_2 6)))
 (let (($x1848 (= cell_6_2 5)))
 (let (($x919 (= cell_6_2 4)))
 (let (($x1539 (= cell_6_2 3)))
 (let (($x7345 (= cell_6_2 2)))
 (let (($x232 (= cell_6_2 1)))
 (or $x232 $x7345 $x1539 $x919 $x1848 $x406 $x4194 $x3817 $x1845)))))))))))
(assert
 (let (($x1280 (= cell_7_2 2)))
 (let (($x8015 (= cell_7_2 1)))
 (or $x8015 $x1280 (= cell_7_2 3) (= cell_7_2 4) (= cell_7_2 5) (= cell_7_2 6) (= cell_7_2 7) (= cell_7_2 8) (= cell_7_2 9)))))
(assert
 (let (($x856 (= cell_8_2 9)))
 (let (($x1674 (= cell_8_2 8)))
 (let (($x2292 (= cell_8_2 7)))
 (let (($x4150 (= cell_8_2 6)))
 (let (($x3257 (= cell_8_2 5)))
 (let (($x715 (= cell_8_2 4)))
 (let (($x1946 (= cell_8_2 3)))
 (let (($x1168 (= cell_8_2 2)))
 (let (($x1690 (= cell_8_2 1)))
 (or $x1690 $x1168 $x1946 $x715 $x3257 $x4150 $x2292 $x1674 $x856)))))))))))
(assert
 (let (($x2940 (= cell_9_2 9)))
 (let (($x1570 (= cell_9_2 8)))
 (let (($x2626 (= cell_9_2 7)))
 (let (($x1487 (= cell_9_2 6)))
 (let (($x3649 (= cell_9_2 5)))
 (let (($x455 (= cell_9_2 4)))
 (let (($x2942 (= cell_9_2 3)))
 (let (($x2980 (= cell_9_2 2)))
 (let (($x1363 (= cell_9_2 1)))
 (or $x1363 $x2980 $x2942 $x455 $x3649 $x1487 $x2626 $x1570 $x2940)))))))))))
(assert
 (let (($x8006 (= cell_1_3 9)))
 (let (($x519 (= cell_1_3 8)))
 (let (($x7872 (= cell_1_3 7)))
 (let (($x939 (= cell_1_3 6)))
 (let (($x3624 (= cell_1_3 5)))
 (let (($x3432 (= cell_1_3 4)))
 (let (($x1789 (= cell_1_3 3)))
 (let (($x3567 (= cell_1_3 2)))
 (let (($x415 (= cell_1_3 1)))
 (or $x415 $x3567 $x1789 $x3432 $x3624 $x939 $x7872 $x519 $x8006)))))))))))
(assert
 (let (($x7753 (= cell_2_3 1)))
 (or $x7753 (= cell_2_3 2) (= cell_2_3 3) (= cell_2_3 4) (= cell_2_3 5) (= cell_2_3 6) (= cell_2_3 7) (= cell_2_3 8) (= cell_2_3 9))))
(assert
 (let (($x3043 (= cell_3_3 9)))
 (let (($x3185 (= cell_3_3 8)))
 (let (($x325 (= cell_3_3 7)))
 (let (($x971 (= cell_3_3 6)))
 (let (($x3895 (= cell_3_3 5)))
 (let (($x7 (= cell_3_3 4)))
 (let (($x4166 (= cell_3_3 3)))
 (let (($x606 (= cell_3_3 2)))
 (let (($x3340 (= cell_3_3 1)))
 (or $x3340 $x606 $x4166 $x7 $x3895 $x971 $x325 $x3185 $x3043)))))))))))
(assert
 (let (($x1209 (= cell_4_3 2)))
 (let (($x395 (= cell_4_3 1)))
 (or $x395 $x1209 (= cell_4_3 3) (= cell_4_3 4) (= cell_4_3 5) (= cell_4_3 6) (= cell_4_3 7) (= cell_4_3 8) (= cell_4_3 9)))))
(assert
 (let (($x1500 (= cell_5_3 9)))
 (let (($x1931 (= cell_5_3 8)))
 (let (($x2078 (= cell_5_3 7)))
 (let (($x369 (= cell_5_3 6)))
 (let (($x801 (= cell_5_3 5)))
 (let (($x872 (= cell_5_3 4)))
 (let (($x822 (= cell_5_3 3)))
 (let (($x2374 (= cell_5_3 2)))
 (let (($x453 (= cell_5_3 1)))
 (or $x453 $x2374 $x822 $x872 $x801 $x369 $x2078 $x1931 $x1500)))))))))))
(assert
 (let (($x3451 (= cell_6_3 9)))
 (let (($x2242 (= cell_6_3 8)))
 (let (($x3485 (= cell_6_3 7)))
 (let (($x3674 (= cell_6_3 6)))
 (let (($x40 (= cell_6_3 5)))
 (let (($x3509 (= cell_6_3 4)))
 (let (($x2432 (= cell_6_3 3)))
 (let (($x2648 (= cell_6_3 2)))
 (let (($x1103 (= cell_6_3 1)))
 (or $x1103 $x2648 $x2432 $x3509 $x40 $x3674 $x3485 $x2242 $x3451)))))))))))
(assert
 (let (($x2810 (= cell_7_3 9)))
 (let (($x1473 (= cell_7_3 8)))
 (let (($x3283 (= cell_7_3 7)))
 (let (($x3038 (= cell_7_3 6)))
 (let (($x376 (= cell_7_3 5)))
 (let (($x3440 (= cell_7_3 4)))
 (let (($x4119 (= cell_7_3 3)))
 (let (($x1533 (= cell_7_3 2)))
 (let (($x1289 (= cell_7_3 1)))
 (or $x1289 $x1533 $x4119 $x3440 $x376 $x3038 $x3283 $x1473 $x2810)))))))))))
(assert
 (let (($x3943 (= cell_8_3 9)))
 (let (($x3823 (= cell_8_3 8)))
 (let (($x2015 (= cell_8_3 7)))
 (let (($x385 (= cell_8_3 6)))
 (let (($x2915 (= cell_8_3 5)))
 (let (($x1766 (= cell_8_3 4)))
 (let (($x2316 (= cell_8_3 3)))
 (let (($x622 (= cell_8_3 2)))
 (let (($x7319 (= cell_8_3 1)))
 (or $x7319 $x622 $x2316 $x1766 $x2915 $x385 $x2015 $x3823 $x3943)))))))))))
(assert
 (let (($x3400 (= cell_9_3 9)))
 (let (($x476 (= cell_9_3 8)))
 (let (($x229 (= cell_9_3 7)))
 (let (($x1998 (= cell_9_3 6)))
 (let (($x1422 (= cell_9_3 5)))
 (let (($x2695 (= cell_9_3 4)))
 (let (($x726 (= cell_9_3 3)))
 (let (($x3867 (= cell_9_3 2)))
 (let (($x200 (= cell_9_3 1)))
 (or $x200 $x3867 $x726 $x2695 $x1422 $x1998 $x229 $x476 $x3400)))))))))))
(assert
 (let (($x3334 (= cell_1_4 9)))
 (let (($x723 (= cell_1_4 8)))
 (let (($x7999 (= cell_1_4 7)))
 (let (($x3410 (= cell_1_4 6)))
 (let (($x1370 (= cell_1_4 5)))
 (let (($x1262 (= cell_1_4 4)))
 (let (($x3711 (= cell_1_4 3)))
 (let (($x7667 (= cell_1_4 2)))
 (let (($x749 (= cell_1_4 1)))
 (or $x749 $x7667 $x3711 $x1262 $x1370 $x3410 $x7999 $x723 $x3334)))))))))))
(assert
 (let (($x349 (= cell_2_4 9)))
 (let (($x993 (= cell_2_4 8)))
 (let (($x1118 (= cell_2_4 7)))
 (let (($x3647 (= cell_2_4 6)))
 (let (($x2890 (= cell_2_4 5)))
 (let (($x6776 (= cell_2_4 4)))
 (let (($x2208 (= cell_2_4 3)))
 (let (($x3588 (= cell_2_4 2)))
 (let (($x6936 (= cell_2_4 1)))
 (or $x6936 $x3588 $x2208 $x6776 $x2890 $x3647 $x1118 $x993 $x349)))))))))))
(assert
 (let (($x3690 (= cell_3_4 9)))
 (let (($x3628 (= cell_3_4 8)))
 (let (($x2933 (= cell_3_4 7)))
 (let (($x552 (= cell_3_4 6)))
 (let (($x1236 (= cell_3_4 5)))
 (let (($x2670 (= cell_3_4 4)))
 (let (($x1153 (= cell_3_4 3)))
 (let (($x7853 (= cell_3_4 2)))
 (let (($x4132 (= cell_3_4 1)))
 (or $x4132 $x7853 $x1153 $x2670 $x1236 $x552 $x2933 $x3628 $x3690)))))))))))
(assert
 (let (($x1102 (= cell_4_4 9)))
 (let (($x1194 (= cell_4_4 8)))
 (let (($x1093 (= cell_4_4 7)))
 (let (($x1461 (= cell_4_4 6)))
 (let (($x1389 (= cell_4_4 5)))
 (let (($x2954 (= cell_4_4 4)))
 (let (($x1136 (= cell_4_4 3)))
 (let (($x1875 (= cell_4_4 2)))
 (let (($x2179 (= cell_4_4 1)))
 (or $x2179 $x1875 $x1136 $x2954 $x1389 $x1461 $x1093 $x1194 $x1102)))))))))))
(assert
 (let (($x8017 (= cell_5_4 9)))
 (let (($x3429 (= cell_5_4 8)))
 (let (($x933 (= cell_5_4 7)))
 (let (($x3341 (= cell_5_4 6)))
 (let (($x4163 (= cell_5_4 5)))
 (let (($x3230 (= cell_5_4 4)))
 (let (($x3168 (= cell_5_4 3)))
 (let (($x1067 (= cell_5_4 2)))
 (let (($x1792 (= cell_5_4 1)))
 (or $x1792 $x1067 $x3168 $x3230 $x4163 $x3341 $x933 $x3429 $x8017)))))))))))
(assert
 (let (($x3359 (= cell_6_4 2)))
 (or (= cell_6_4 1) $x3359 (= cell_6_4 3) (= cell_6_4 4) (= cell_6_4 5) (= cell_6_4 6) (= cell_6_4 7) (= cell_6_4 8) (= cell_6_4 9))))
(assert
 (let (($x3661 (= cell_7_4 9)))
 (let (($x2646 (= cell_7_4 8)))
 (let (($x3376 (= cell_7_4 7)))
 (let (($x916 (= cell_7_4 6)))
 (let (($x3857 (= cell_7_4 5)))
 (let (($x1546 (= cell_7_4 4)))
 (let (($x1800 (= cell_7_4 3)))
 (let (($x2552 (= cell_7_4 2)))
 (let (($x8008 (= cell_7_4 1)))
 (or $x8008 $x2552 $x1800 $x1546 $x3857 $x916 $x3376 $x2646 $x3661)))))))))))
(assert
 (let (($x3987 (= cell_8_4 1)))
 (or $x3987 (= cell_8_4 2) (= cell_8_4 3) (= cell_8_4 4) (= cell_8_4 5) (= cell_8_4 6) (= cell_8_4 7) (= cell_8_4 8) (= cell_8_4 9))))
(assert
 (let (($x1344 (= cell_9_4 9)))
 (let (($x317 (= cell_9_4 8)))
 (let (($x1955 (= cell_9_4 7)))
 (let (($x2343 (= cell_9_4 6)))
 (let (($x644 (= cell_9_4 5)))
 (let (($x2681 (= cell_9_4 4)))
 (let (($x2674 (= cell_9_4 3)))
 (let (($x3264 (= cell_9_4 2)))
 (let (($x1096 (= cell_9_4 1)))
 (or $x1096 $x3264 $x2674 $x2681 $x644 $x2343 $x1955 $x317 $x1344)))))))))))
(assert
 (let (($x7795 (= cell_1_5 9)))
 (let (($x2620 (= cell_1_5 8)))
 (let (($x419 (= cell_1_5 7)))
 (let (($x1927 (= cell_1_5 6)))
 (let (($x2999 (= cell_1_5 5)))
 (let (($x2419 (= cell_1_5 4)))
 (let (($x2005 (= cell_1_5 3)))
 (let (($x1082 (= cell_1_5 2)))
 (let (($x1963 (= cell_1_5 1)))
 (or $x1963 $x1082 $x2005 $x2419 $x2999 $x1927 $x419 $x2620 $x7795)))))))))))
(assert
 (let (($x181 (= cell_2_5 9)))
 (let (($x2046 (= cell_2_5 8)))
 (let (($x700 (= cell_2_5 7)))
 (let (($x2421 (= cell_2_5 6)))
 (let (($x1925 (= cell_2_5 5)))
 (let (($x1037 (= cell_2_5 4)))
 (let (($x7235 (= cell_2_5 3)))
 (let (($x3167 (= cell_2_5 2)))
 (let (($x4170 (= cell_2_5 1)))
 (or $x4170 $x3167 $x7235 $x1037 $x1925 $x2421 $x700 $x2046 $x181)))))))))))
(assert
 (let (($x2592 (= cell_3_5 1)))
 (or $x2592 (= cell_3_5 2) (= cell_3_5 3) (= cell_3_5 4) (= cell_3_5 5) (= cell_3_5 6) (= cell_3_5 7) (= cell_3_5 8) (= cell_3_5 9))))
(assert
 (let (($x3216 (= cell_4_5 9)))
 (let (($x1882 (= cell_4_5 8)))
 (let (($x1943 (= cell_4_5 7)))
 (let (($x2889 (= cell_4_5 6)))
 (let (($x660 (= cell_4_5 5)))
 (let (($x1244 (= cell_4_5 4)))
 (let (($x3886 (= cell_4_5 3)))
 (let (($x3002 (= cell_4_5 2)))
 (let (($x1354 (= cell_4_5 1)))
 (or $x1354 $x3002 $x3886 $x1244 $x660 $x2889 $x1943 $x1882 $x3216)))))))))))
(assert
 (let (($x6616 (= cell_5_5 9)))
 (let (($x2693 (= cell_5_5 8)))
 (let (($x2116 (= cell_5_5 7)))
 (let (($x2556 (= cell_5_5 6)))
 (let (($x2903 (= cell_5_5 5)))
 (let (($x1119 (= cell_5_5 4)))
 (let (($x1196 (= cell_5_5 3)))
 (let (($x1974 (= cell_5_5 2)))
 (let (($x3654 (= cell_5_5 1)))
 (or $x3654 $x1974 $x1196 $x1119 $x2903 $x2556 $x2116 $x2693 $x6616)))))))))))
(assert
 (let (($x1201 (= cell_6_5 9)))
 (let (($x300 (= cell_6_5 8)))
 (let (($x3391 (= cell_6_5 7)))
 (let (($x375 (= cell_6_5 6)))
 (let (($x3750 (= cell_6_5 5)))
 (let (($x3941 (= cell_6_5 4)))
 (let (($x2128 (= cell_6_5 3)))
 (let (($x4111 (= cell_6_5 2)))
 (let (($x2512 (= cell_6_5 1)))
 (or $x2512 $x4111 $x2128 $x3941 $x3750 $x375 $x3391 $x300 $x1201)))))))))))
(assert
 (let (($x3618 (= cell_7_5 9)))
 (let (($x169 (= cell_7_5 8)))
 (let (($x3347 (= cell_7_5 7)))
 (let (($x315 (= cell_7_5 6)))
 (let (($x1086 (= cell_7_5 5)))
 (let (($x3534 (= cell_7_5 4)))
 (let (($x752 (= cell_7_5 3)))
 (let (($x3741 (= cell_7_5 2)))
 (let (($x3967 (= cell_7_5 1)))
 (or $x3967 $x3741 $x752 $x3534 $x1086 $x315 $x3347 $x169 $x3618)))))))))))
(assert
 (let (($x6961 (= cell_8_5 1)))
 (or $x6961 (= cell_8_5 2) (= cell_8_5 3) (= cell_8_5 4) (= cell_8_5 5) (= cell_8_5 6) (= cell_8_5 7) (= cell_8_5 8) (= cell_8_5 9))))
(assert
 (let (($x16 (= cell_9_5 9)))
 (let (($x1186 (= cell_9_5 8)))
 (let (($x4092 (= cell_9_5 7)))
 (let (($x7294 (= cell_9_5 6)))
 (let (($x7789 (= cell_9_5 5)))
 (let (($x1530 (= cell_9_5 4)))
 (let (($x6865 (= cell_9_5 3)))
 (let (($x778 (= cell_9_5 2)))
 (let (($x1340 (= cell_9_5 1)))
 (or $x1340 $x778 $x6865 $x1530 $x7789 $x7294 $x4092 $x1186 $x16)))))))))))
(assert
 (let (($x709 (= cell_1_6 9)))
 (let (($x484 (= cell_1_6 8)))
 (let (($x1864 (= cell_1_6 7)))
 (let (($x3044 (= cell_1_6 6)))
 (let (($x587 (= cell_1_6 5)))
 (let (($x3261 (= cell_1_6 4)))
 (let (($x2503 (= cell_1_6 3)))
 (let (($x117 (= cell_1_6 2)))
 (let (($x3601 (= cell_1_6 1)))
 (or $x3601 $x117 $x2503 $x3261 $x587 $x3044 $x1864 $x484 $x709)))))))))))
(assert
 (let (($x683 (= cell_2_6 9)))
 (let (($x1902 (= cell_2_6 8)))
 (let (($x746 (= cell_2_6 7)))
 (let (($x2426 (= cell_2_6 6)))
 (let (($x2490 (= cell_2_6 5)))
 (let (($x2350 (= cell_2_6 4)))
 (let (($x2108 (= cell_2_6 3)))
 (let (($x2740 (= cell_2_6 2)))
 (let (($x1676 (= cell_2_6 1)))
 (or $x1676 $x2740 $x2108 $x2350 $x2490 $x2426 $x746 $x1902 $x683)))))))))))
(assert
 (let (($x1712 (= cell_3_6 2)))
 (or (= cell_3_6 1) $x1712 (= cell_3_6 3) (= cell_3_6 4) (= cell_3_6 5) (= cell_3_6 6) (= cell_3_6 7) (= cell_3_6 8) (= cell_3_6 9))))
(assert
 (let (($x7963 (= cell_4_6 9)))
 (let (($x2666 (= cell_4_6 8)))
 (let (($x875 (= cell_4_6 7)))
 (let (($x7375 (= cell_4_6 6)))
 (let (($x65 (= cell_4_6 5)))
 (let (($x3448 (= cell_4_6 4)))
 (let (($x359 (= cell_4_6 3)))
 (let (($x562 (= cell_4_6 2)))
 (let (($x3100 (= cell_4_6 1)))
 (or $x3100 $x562 $x359 $x3448 $x65 $x7375 $x875 $x2666 $x7963)))))))))))
(assert
 (let (($x1969 (= cell_5_6 9)))
 (let (($x1639 (= cell_5_6 8)))
 (let (($x2768 (= cell_5_6 7)))
 (let (($x1408 (= cell_5_6 6)))
 (let (($x2546 (= cell_5_6 5)))
 (let (($x4043 (= cell_5_6 4)))
 (let (($x3109 (= cell_5_6 3)))
 (let (($x2849 (= cell_5_6 2)))
 (let (($x682 (= cell_5_6 1)))
 (or $x682 $x2849 $x3109 $x4043 $x2546 $x1408 $x2768 $x1639 $x1969)))))))))))
(assert
 (let (($x4158 (= cell_6_6 1)))
 (or $x4158 (= cell_6_6 2) (= cell_6_6 3) (= cell_6_6 4) (= cell_6_6 5) (= cell_6_6 6) (= cell_6_6 7) (= cell_6_6 8) (= cell_6_6 9))))
(assert
 (let (($x2661 (= cell_7_6 9)))
 (let (($x2569 (= cell_7_6 8)))
 (let (($x607 (= cell_7_6 7)))
 (let (($x747 (= cell_7_6 6)))
 (let (($x2307 (= cell_7_6 5)))
 (let (($x417 (= cell_7_6 4)))
 (let (($x573 (= cell_7_6 3)))
 (let (($x932 (= cell_7_6 2)))
 (let (($x2288 (= cell_7_6 1)))
 (or $x2288 $x932 $x573 $x417 $x2307 $x747 $x607 $x2569 $x2661)))))))))))
(assert
 (let (($x548 (= cell_8_6 2)))
 (let (($x2431 (= cell_8_6 1)))
 (or $x2431 $x548 (= cell_8_6 3) (= cell_8_6 4) (= cell_8_6 5) (= cell_8_6 6) (= cell_8_6 7) (= cell_8_6 8) (= cell_8_6 9)))))
(assert
 (let (($x7776 (= cell_9_6 9)))
 (let (($x1988 (= cell_9_6 8)))
 (let (($x931 (= cell_9_6 7)))
 (let (($x1608 (= cell_9_6 6)))
 (let (($x630 (= cell_9_6 5)))
 (let (($x2853 (= cell_9_6 4)))
 (let (($x3489 (= cell_9_6 3)))
 (let (($x2604 (= cell_9_6 2)))
 (let (($x3430 (= cell_9_6 1)))
 (or $x3430 $x2604 $x3489 $x2853 $x630 $x1608 $x931 $x1988 $x7776)))))))))))
(assert
 (let (($x150 (= cell_1_7 2)))
 (or (= cell_1_7 1) $x150 (= cell_1_7 3) (= cell_1_7 4) (= cell_1_7 5) (= cell_1_7 6) (= cell_1_7 7) (= cell_1_7 8) (= cell_1_7 9))))
(assert
 (let (($x2038 (= cell_2_7 9)))
 (let (($x2800 (= cell_2_7 8)))
 (let (($x1978 (= cell_2_7 7)))
 (let (($x3292 (= cell_2_7 6)))
 (let (($x1816 (= cell_2_7 5)))
 (let (($x254 (= cell_2_7 4)))
 (let (($x4112 (= cell_2_7 3)))
 (let (($x1311 (= cell_2_7 2)))
 (let (($x2606 (= cell_2_7 1)))
 (or $x2606 $x1311 $x4112 $x254 $x1816 $x3292 $x1978 $x2800 $x2038)))))))))))
(assert
 (let (($x2493 (= cell_3_7 9)))
 (let (($x1246 (= cell_3_7 8)))
 (let (($x2835 (= cell_3_7 7)))
 (let (($x947 (= cell_3_7 6)))
 (let (($x4238 (= cell_3_7 5)))
 (let (($x2425 (= cell_3_7 4)))
 (let (($x2070 (= cell_3_7 3)))
 (let (($x2609 (= cell_3_7 2)))
 (let (($x3399 (= cell_3_7 1)))
 (or $x3399 $x2609 $x2070 $x2425 $x4238 $x947 $x2835 $x1246 $x2493)))))))))))
(assert
 (let (($x2975 (= cell_4_7 9)))
 (let (($x73 (= cell_4_7 8)))
 (let (($x500 (= cell_4_7 7)))
 (let (($x2840 (= cell_4_7 6)))
 (let (($x1321 (= cell_4_7 5)))
 (let (($x4189 (= cell_4_7 4)))
 (let (($x3177 (= cell_4_7 3)))
 (let (($x1380 (= cell_4_7 2)))
 (let (($x3417 (= cell_4_7 1)))
 (or $x3417 $x1380 $x3177 $x4189 $x1321 $x2840 $x500 $x73 $x2975)))))))))))
(assert
 (let (($x2182 (= cell_5_7 1)))
 (or $x2182 (= cell_5_7 2) (= cell_5_7 3) (= cell_5_7 4) (= cell_5_7 5) (= cell_5_7 6) (= cell_5_7 7) (= cell_5_7 8) (= cell_5_7 9))))
(assert
 (let (($x656 (= cell_6_7 2)))
 (let (($x691 (= cell_6_7 1)))
 (or $x691 $x656 (= cell_6_7 3) (= cell_6_7 4) (= cell_6_7 5) (= cell_6_7 6) (= cell_6_7 7) (= cell_6_7 8) (= cell_6_7 9)))))
(assert
 (let (($x960 (= cell_7_7 9)))
 (let (($x3777 (= cell_7_7 8)))
 (let (($x3173 (= cell_7_7 7)))
 (let (($x2048 (= cell_7_7 6)))
 (let (($x3794 (= cell_7_7 5)))
 (let (($x1671 (= cell_7_7 4)))
 (let (($x1327 (= cell_7_7 3)))
 (let (($x2574 (= cell_7_7 2)))
 (let (($x3686 (= cell_7_7 1)))
 (or $x3686 $x2574 $x1327 $x1671 $x3794 $x2048 $x3173 $x3777 $x960)))))))))))
(assert
 (let (($x7483 (= cell_8_7 9)))
 (let (($x7761 (= cell_8_7 8)))
 (let (($x111 (= cell_8_7 7)))
 (let (($x3073 (= cell_8_7 6)))
 (let (($x499 (= cell_8_7 5)))
 (let (($x2881 (= cell_8_7 4)))
 (let (($x1932 (= cell_8_7 3)))
 (let (($x473 (= cell_8_7 2)))
 (let (($x2041 (= cell_8_7 1)))
 (or $x2041 $x473 $x1932 $x2881 $x499 $x3073 $x111 $x7761 $x7483)))))))))))
(assert
 (let (($x1582 (= cell_9_7 9)))
 (let (($x1817 (= cell_9_7 8)))
 (let (($x3176 (= cell_9_7 7)))
 (let (($x4049 (= cell_9_7 6)))
 (let (($x1045 (= cell_9_7 5)))
 (let (($x2235 (= cell_9_7 4)))
 (let (($x1644 (= cell_9_7 3)))
 (let (($x79 (= cell_9_7 2)))
 (let (($x1710 (= cell_9_7 1)))
 (or $x1710 $x79 $x1644 $x2235 $x1045 $x4049 $x3176 $x1817 $x1582)))))))))))
(assert
 (let (($x1625 (= cell_1_8 1)))
 (or $x1625 (= cell_1_8 2) (= cell_1_8 3) (= cell_1_8 4) (= cell_1_8 5) (= cell_1_8 6) (= cell_1_8 7) (= cell_1_8 8) (= cell_1_8 9))))
(assert
 (let (($x3799 (= cell_2_8 2)))
 (let (($x2563 (= cell_2_8 1)))
 (or $x2563 $x3799 (= cell_2_8 3) (= cell_2_8 4) (= cell_2_8 5) (= cell_2_8 6) (= cell_2_8 7) (= cell_2_8 8) (= cell_2_8 9)))))
(assert
 (let (($x708 (= cell_3_8 2)))
 (let (($x651 (= cell_3_8 1)))
 (or $x651 $x708 (= cell_3_8 3) (= cell_3_8 4) (= cell_3_8 5) (= cell_3_8 6) (= cell_3_8 7) (= cell_3_8 8) (= cell_3_8 9)))))
(assert
 (let (($x679 (= cell_4_8 9)))
 (let (($x4067 (= cell_4_8 8)))
 (let (($x3682 (= cell_4_8 7)))
 (let (($x3324 (= cell_4_8 6)))
 (let (($x3568 (= cell_4_8 5)))
 (let (($x1222 (= cell_4_8 4)))
 (let (($x724 (= cell_4_8 3)))
 (let (($x2407 (= cell_4_8 2)))
 (let (($x119 (= cell_4_8 1)))
 (or $x119 $x2407 $x724 $x1222 $x3568 $x3324 $x3682 $x4067 $x679)))))))))))
(assert
 (let (($x174 (= cell_5_8 9)))
 (let (($x634 (= cell_5_8 8)))
 (let (($x2452 (= cell_5_8 7)))
 (let (($x829 (= cell_5_8 6)))
 (let (($x3769 (= cell_5_8 5)))
 (let (($x941 (= cell_5_8 4)))
 (let (($x3783 (= cell_5_8 3)))
 (let (($x802 (= cell_5_8 2)))
 (let (($x2598 (= cell_5_8 1)))
 (or $x2598 $x802 $x3783 $x941 $x3769 $x829 $x2452 $x634 $x174)))))))))))
(assert
 (let (($x4224 (= cell_6_8 2)))
 (let (($x565 (= cell_6_8 1)))
 (or $x565 $x4224 (= cell_6_8 3) (= cell_6_8 4) (= cell_6_8 5) (= cell_6_8 6) (= cell_6_8 7) (= cell_6_8 8) (= cell_6_8 9)))))
(assert
 (let (($x616 (= cell_7_8 9)))
 (let (($x1384 (= cell_7_8 8)))
 (let (($x1874 (= cell_7_8 7)))
 (let (($x364 (= cell_7_8 6)))
 (let (($x3847 (= cell_7_8 5)))
 (let (($x2921 (= cell_7_8 4)))
 (let (($x1499 (= cell_7_8 3)))
 (let (($x3845 (= cell_7_8 2)))
 (let (($x3284 (= cell_7_8 1)))
 (or $x3284 $x3845 $x1499 $x2921 $x3847 $x364 $x1874 $x1384 $x616)))))))))))
(assert
 (let (($x3719 (= cell_8_8 9)))
 (let (($x2863 (= cell_8_8 8)))
 (let (($x7538 (= cell_8_8 7)))
 (let (($x3724 (= cell_8_8 6)))
 (let (($x168 (= cell_8_8 5)))
 (let (($x3059 (= cell_8_8 4)))
 (let (($x7803 (= cell_8_8 3)))
 (let (($x2473 (= cell_8_8 2)))
 (let (($x3835 (= cell_8_8 1)))
 (or $x3835 $x2473 $x7803 $x3059 $x168 $x3724 $x7538 $x2863 $x3719)))))))))))
(assert
 (let (($x2481 (= cell_9_8 9)))
 (let (($x891 (= cell_9_8 8)))
 (let (($x2465 (= cell_9_8 7)))
 (let (($x3570 (= cell_9_8 6)))
 (let (($x485 (= cell_9_8 5)))
 (let (($x3088 (= cell_9_8 4)))
 (let (($x1772 (= cell_9_8 3)))
 (let (($x867 (= cell_9_8 2)))
 (let (($x4093 (= cell_9_8 1)))
 (or $x4093 $x867 $x1772 $x3088 $x485 $x3570 $x2465 $x891 $x2481)))))))))))
(assert
 (let (($x1577 (= cell_1_9 9)))
 (let (($x2148 (= cell_1_9 8)))
 (let (($x2326 (= cell_1_9 7)))
 (let (($x446 (= cell_1_9 6)))
 (let (($x490 (= cell_1_9 5)))
 (let (($x8009 (= cell_1_9 4)))
 (let (($x1517 (= cell_1_9 3)))
 (let (($x3540 (= cell_1_9 2)))
 (let (($x2656 (= cell_1_9 1)))
 (or $x2656 $x3540 $x1517 $x8009 $x490 $x446 $x2326 $x2148 $x1577)))))))))))
(assert
 (let (($x3384 (= cell_2_9 9)))
 (let (($x697 (= cell_2_9 8)))
 (let (($x1553 (= cell_2_9 7)))
 (let (($x975 (= cell_2_9 6)))
 (let (($x3318 (= cell_2_9 5)))
 (let (($x1031 (= cell_2_9 4)))
 (let (($x3720 (= cell_2_9 3)))
 (let (($x192 (= cell_2_9 2)))
 (let (($x1658 (= cell_2_9 1)))
 (or $x1658 $x192 $x3720 $x1031 $x3318 $x975 $x1553 $x697 $x3384)))))))))))
(assert
 (let (($x2854 (= cell_3_9 9)))
 (let (($x145 (= cell_3_9 8)))
 (let (($x1456 (= cell_3_9 7)))
 (let (($x1351 (= cell_3_9 6)))
 (let (($x7292 (= cell_3_9 5)))
 (let (($x1716 (= cell_3_9 4)))
 (let (($x4086 (= cell_3_9 3)))
 (let (($x2091 (= cell_3_9 2)))
 (let (($x4083 (= cell_3_9 1)))
 (or $x4083 $x2091 $x4086 $x1716 $x7292 $x1351 $x1456 $x145 $x2854)))))))))))
(assert
 (let (($x2352 (= cell_4_9 9)))
 (let (($x7763 (= cell_4_9 8)))
 (let (($x283 (= cell_4_9 7)))
 (let (($x3165 (= cell_4_9 6)))
 (let (($x1022 (= cell_4_9 5)))
 (let (($x1182 (= cell_4_9 4)))
 (let (($x2198 (= cell_4_9 3)))
 (let (($x2110 (= cell_4_9 2)))
 (let (($x3696 (= cell_4_9 1)))
 (or $x3696 $x2110 $x2198 $x1182 $x1022 $x3165 $x283 $x7763 $x2352)))))))))))
(assert
 (let (($x650 (= cell_5_9 2)))
 (or (= cell_5_9 1) $x650 (= cell_5_9 3) (= cell_5_9 4) (= cell_5_9 5) (= cell_5_9 6) (= cell_5_9 7) (= cell_5_9 8) (= cell_5_9 9))))
(assert
 (let (($x8027 (= cell_6_9 9)))
 (let (($x2817 (= cell_6_9 8)))
 (let (($x2312 (= cell_6_9 7)))
 (let (($x1956 (= cell_6_9 6)))
 (let (($x2662 (= cell_6_9 5)))
 (let (($x2875 (= cell_6_9 4)))
 (let (($x59 (= cell_6_9 3)))
 (let (($x3781 (= cell_6_9 2)))
 (let (($x340 (= cell_6_9 1)))
 (or $x340 $x3781 $x59 $x2875 $x2662 $x1956 $x2312 $x2817 $x8027)))))))))))
(assert
 (let (($x4210 (= cell_7_9 9)))
 (let (($x7975 (= cell_7_9 8)))
 (let (($x780 (= cell_7_9 7)))
 (let (($x523 (= cell_7_9 6)))
 (let (($x1218 (= cell_7_9 5)))
 (let (($x2651 (= cell_7_9 4)))
 (let (($x1228 (= cell_7_9 3)))
 (let (($x3667 (= cell_7_9 2)))
 (let (($x2082 (= cell_7_9 1)))
 (or $x2082 $x3667 $x1228 $x2651 $x1218 $x523 $x780 $x7975 $x4210)))))))))))
(assert
 (let (($x3854 (= cell_8_9 9)))
 (let (($x2603 (= cell_8_9 8)))
 (let (($x1173 (= cell_8_9 7)))
 (let (($x1458 (= cell_8_9 6)))
 (let (($x4151 (= cell_8_9 5)))
 (let (($x1555 (= cell_8_9 4)))
 (let (($x386 (= cell_8_9 3)))
 (let (($x2302 (= cell_8_9 2)))
 (let (($x680 (= cell_8_9 1)))
 (or $x680 $x2302 $x386 $x1555 $x4151 $x1458 $x1173 $x2603 $x3854)))))))))))
(assert
 (let (($x989 (= cell_9_9 1)))
 (or $x989 (= cell_9_9 2) (= cell_9_9 3) (= cell_9_9 4) (= cell_9_9 5) (= cell_9_9 6) (= cell_9_9 7) (= cell_9_9 8) (= cell_9_9 9))))
(assert
 (and (distinct cell_1_1 cell_1_2 cell_1_3 cell_1_4 cell_1_5 cell_1_6 cell_1_7 cell_1_8 cell_1_9) true))
(assert
 (and (distinct cell_2_1 cell_2_2 cell_2_3 cell_2_4 cell_2_5 cell_2_6 cell_2_7 cell_2_8 cell_2_9) true))
(assert
 (and (distinct cell_3_1 cell_3_2 cell_3_3 cell_3_4 cell_3_5 cell_3_6 cell_3_7 cell_3_8 cell_3_9) true))
(assert
 (and (distinct cell_4_1 cell_4_2 cell_4_3 cell_4_4 cell_4_5 cell_4_6 cell_4_7 cell_4_8 cell_4_9) true))
(assert
 (and (distinct cell_5_1 cell_5_2 cell_5_3 cell_5_4 cell_5_5 cell_5_6 cell_5_7 cell_5_8 cell_5_9) true))
(assert
 (and (distinct cell_6_1 cell_6_2 cell_6_3 cell_6_4 cell_6_5 cell_6_6 cell_6_7 cell_6_8 cell_6_9) true))
(assert
 (and (distinct cell_7_1 cell_7_2 cell_7_3 cell_7_4 cell_7_5 cell_7_6 cell_7_7 cell_7_8 cell_7_9) true))
(assert
 (and (distinct cell_8_1 cell_8_2 cell_8_3 cell_8_4 cell_8_5 cell_8_6 cell_8_7 cell_8_8 cell_8_9) true))
(assert
 (and (distinct cell_9_1 cell_9_2 cell_9_3 cell_9_4 cell_9_5 cell_9_6 cell_9_7 cell_9_8 cell_9_9) true))
(assert
 (and (distinct cell_1_1 cell_2_1 cell_3_1 cell_4_1 cell_5_1 cell_6_1 cell_7_1 cell_8_1 cell_9_1) true))
(assert
 (and (distinct cell_1_2 cell_2_2 cell_3_2 cell_4_2 cell_5_2 cell_6_2 cell_7_2 cell_8_2 cell_9_2) true))
(assert
 (and (distinct cell_1_3 cell_2_3 cell_3_3 cell_4_3 cell_5_3 cell_6_3 cell_7_3 cell_8_3 cell_9_3) true))
(assert
 (and (distinct cell_1_4 cell_2_4 cell_3_4 cell_4_4 cell_5_4 cell_6_4 cell_7_4 cell_8_4 cell_9_4) true))
(assert
 (and (distinct cell_1_5 cell_2_5 cell_3_5 cell_4_5 cell_5_5 cell_6_5 cell_7_5 cell_8_5 cell_9_5) true))
(assert
 (and (distinct cell_1_6 cell_2_6 cell_3_6 cell_4_6 cell_5_6 cell_6_6 cell_7_6 cell_8_6 cell_9_6) true))
(assert
 (and (distinct cell_1_7 cell_2_7 cell_3_7 cell_4_7 cell_5_7 cell_6_7 cell_7_7 cell_8_7 cell_9_7) true))
(assert
 (and (distinct cell_1_8 cell_2_8 cell_3_8 cell_4_8 cell_5_8 cell_6_8 cell_7_8 cell_8_8 cell_9_8) true))
(assert
 (and (distinct cell_1_9 cell_2_9 cell_3_9 cell_4_9 cell_5_9 cell_6_9 cell_7_9 cell_8_9 cell_9_9) true))
(assert
 (and (distinct cell_1_1 cell_1_2 cell_1_3 cell_2_1 cell_2_2 cell_2_3 cell_3_1 cell_3_2 cell_3_3) true))
(assert
 (and (distinct cell_1_4 cell_1_5 cell_1_6 cell_2_4 cell_2_5 cell_2_6 cell_3_4 cell_3_5 cell_3_6) true))
(assert
 (and (distinct cell_1_7 cell_1_8 cell_1_9 cell_2_7 cell_2_8 cell_2_9 cell_3_7 cell_3_8 cell_3_9) true))
(assert
 (and (distinct cell_4_1 cell_4_2 cell_4_3 cell_5_1 cell_5_2 cell_5_3 cell_6_1 cell_6_2 cell_6_3) true))
(assert
 (and (distinct cell_4_4 cell_4_5 cell_4_6 cell_5_4 cell_5_5 cell_5_6 cell_6_4 cell_6_5 cell_6_6) true))
(assert
 (and (distinct cell_4_7 cell_4_8 cell_4_9 cell_5_7 cell_5_8 cell_5_9 cell_6_7 cell_6_8 cell_6_9) true))
(assert
 (and (distinct cell_7_1 cell_7_2 cell_7_3 cell_8_1 cell_8_2 cell_8_3 cell_9_1 cell_9_2 cell_9_3) true))
(assert
 (and (distinct cell_7_4 cell_7_5 cell_7_6 cell_8_4 cell_8_5 cell_8_6 cell_9_4 cell_9_5 cell_9_6) true))
(assert
 (and (distinct cell_7_7 cell_7_8 cell_7_9 cell_8_7 cell_8_8 cell_8_9 cell_9_7 cell_9_8 cell_9_9) true))
(assert
 (let (($x3457 (and (distinct cell_5_9 cell_6_8 cell_7_7 cell_8_6) true)))
 (let (($x3297 (and (distinct cell_2_9 cell_3_8 cell_4_7 cell_5_6 cell_6_5 cell_7_4 cell_8_3 cell_9_2) true)))
 (let (($x849 (and (distinct cell_1_8 cell_2_7 cell_3_6 cell_4_5 cell_5_4 cell_6_3 cell_7_2 cell_8_1) true)))
 (let (($x614 (and (distinct cell_1_5 cell_2_4 cell_3_3 cell_4_2) true)))
 (let (($x1873 (and (distinct cell_5_1 cell_6_2 cell_7_3 cell_8_4) true)))
 (let (($x4246 (and (distinct cell_2_1 cell_3_2 cell_4_3 cell_5_4 cell_6_5 cell_7_6 cell_8_7 cell_9_8) true)))
 (let (($x3703 (and (distinct cell_1_2 cell_2_3 cell_3_4 cell_4_5 cell_5_6 cell_6_7 cell_7_8 cell_8_9) true)))
 (let (($x1271 (and (distinct cell_1_5 cell_2_6 cell_3_7 cell_4_8) true)))
 (and $x1271 $x3703 $x4246 $x1873 $x614 $x849 $x3297 $x3457))))))))))
(assert
 (= cell_7_5 2))
(check-sat)
